ID_groupA
724
724
724
724
796
1949
1949
796
724
724
724
724
1949
724
498
724
724
796
1949
724
796
498
498
724
724
724
724
498
498
796
1949
1949
796
498
498
498
724
498
498
498
796
724
724
796
498
498
724
724
724
498
796
1949
1949
796
498
498
724
724
1949
498
1949
796
796
796
796
796
796
796
796
1949
1949
1949
1949
1949
1949
1949
1949
796
724
1949
1949
724
1949
1949
796
796
796
796
796
796
498
498
724
498
498
498
724
498
498
724
1949
724
724
724
1949
